
  17    0


   0  10 2 3 4 5 6 7 13 14 15 16 
   1   3 10 9 8 
   2   2 12 9 
   9   2 9 8 
   2   1 11 
   9   1 10 
   5   1 8 
   8   1 17
   4   1 17
   9   1 17
   9   1 17
   8   1 17
   8   1 17
   9   1 17
  10   1 17
   4   1 17
   0   0 
